(set-logic ALL)
(declare-fun var0 () String)
(assert (str.in_re var0 (re.++ (re.+ (re.union (str.to_re "000") (str.to_re "11"))) (re.++ (re.union (re.union (str.to_re "222") (str.to_re "33")) (re.union (str.to_re "4") (str.to_re "555"))) (re.++ (re.+ (re.* (str.to_re "66"))) (re.++ (re.+ (re.* (str.to_re "777"))) (re.++ (re.union (re.* (str.to_re "8")) (re.+ (str.to_re "99"))) (re.++ (re.union (re.union (str.to_re "aa") (str.to_re "b")) (re.union (str.to_re "cc") (str.to_re "d"))) (re.++ (re.union (re.union (str.to_re "e") (str.to_re "f")) (re.+ (str.to_re "ggg"))) (re.++ (re.* (re.* (str.to_re "hh"))) (re.++ (re.* (re.* (str.to_re "i"))) (re.++ (re.* (re.+ (str.to_re "jj"))) (re.+ (re.* (str.to_re "kk")))))))))))))))
(assert (not (str.in_re var0 (re.++ (re.union (re.union (str.to_re "00") (str.to_re "1")) (re.* (str.to_re "2"))) (re.++ (re.+ (re.* (str.to_re "333"))) (re.++ (re.+ (re.+ (str.to_re "4"))) (re.++ (re.* (re.+ (str.to_re "55"))) (re.++ (re.union (re.* (str.to_re "666")) (re.* (str.to_re "77"))) (re.++ (re.+ (re.union (str.to_re "888") (str.to_re "999"))) (re.++ (re.+ (re.union (str.to_re "aaa") (str.to_re "bb"))) (re.++ (re.+ (re.union (str.to_re "cc") (str.to_re "ddd"))) (re.++ (re.* (re.union (str.to_re "ee") (str.to_re "f"))) (re.++ (re.union (re.union (str.to_re "ggg") (str.to_re "hh")) (re.union (str.to_re "i") (str.to_re "jj"))) (re.* (re.+ (str.to_re "k"))))))))))))))))
(check-sat)